words_hard_train/8828.qaiger
aag 35 15 0 1 20
2
4
8
12
18
22
28
32
38
42
48
52
58
62
66
70
6 2 4
10 7 9
14 13 8
16 11 15
20 17 19
24 23 18
26 21 25
30 27 29
34 33 28
36 31 35
40 37 39
44 43 38
46 41 45
50 47 49
54 53 48
56 51 55
60 56 59
64 62 58
68 65 66
70 61 69
i0 2 y1[6]
i1 1 x1[0]
i2 1 x1[1]
i3 2 y1[5]
i4 1 x1[2]
i5 2 y1[4]
i6 1 x1[3]
i7 2 y1[3]
i8 1 x1[4]
i9 2 y1[2]
i10 1 x1[5]
i11 2 y1[1]
i12 1 x1[6]
i13 2 y1[0]
i14 1 x1[7]
o0 bv[0]
c
simplified
  <=
    and
      add
        1 x1
        1 x1
      reverse
        2 y1
    1 x1
