words_hard_train/8828.qaiger.qdimacs
p cnf 35 61
a 33 2 4 9 14 19 24 29 0
e 1 3 5 6 7 8 10 11 12 13 15 16 17 18 20 21 22 23 25 26 27 28 30 31 32 34 35 0
-1 -2 3 0
1 -3 0
2 -3 0
3 4 5 0
-3 -5 0
-4 -5 0
6 -4 7 0
-6 -7 0
4 -7 0
5 7 8 0
-5 -8 0
-7 -8 0
8 9 10 0
-8 -10 0
-9 -10 0
11 -9 12 0
-11 -12 0
9 -12 0
10 12 13 0
-10 -13 0
-12 -13 0
13 14 15 0
-13 -15 0
-14 -15 0
16 -14 17 0
-16 -17 0
14 -17 0
15 17 18 0
-15 -18 0
-17 -18 0
18 19 20 0
-18 -20 0
-19 -20 0
21 -19 22 0
-21 -22 0
19 -22 0
20 22 23 0
-20 -23 0
-22 -23 0
23 24 25 0
-23 -25 0
-24 -25 0
26 -24 27 0
-26 -27 0
24 -27 0
25 27 28 0
-25 -28 0
-27 -28 0
-28 29 30 0
28 -30 0
-29 -30 0
-31 -29 32 0
31 -32 0
29 -32 0
32 -33 34 0
-32 -34 0
33 -34 0
30 34 35 0
-30 -35 0
-34 -35 0
35 0
